45
1 0 24
2 0 8
2 1 16
3 0 65
3 1 84
3 2 35
4 0 26
4 1 7
4 2 18
4 3 65
5 0 23
5 1 45
5 2 98
5 3 66
5 4 77
6 0 20
6 1 10
6 2 48
6 3 71
6 4 45
6 5 72
7 0 95
7 1 63
7 2 7
7 3 73
7 4 23
7 5 13
7 6 21
8 0 80
8 1 26
8 2 68
8 3 87
8 4 81
8 5 6
8 6 23
8 7 3
9 0 40
9 1 16
9 2 34
9 3 17
9 4 93
9 5 41
9 6 30
9 7 21
9 8 18
10 0 19
10 1 54
10 2 30
10 3 43
10 4 69
10 5 38
10 6 95
10 7 83
10 8 59
10 9 79
11 0 45
11 1 20
11 2 64
11 3 83
11 4 45
11 5 65
11 6 78
11 7 85
11 8 33
11 9 64
11 10 70
12 0 71
12 1 66
12 2 51
12 3 25
12 4 53
12 5 73
12 6 36
12 7 90
12 8 65
12 9 25
12 10 95
12 11 16
13 0 9
13 1 45
13 2 12
13 3 83
13 4 41
13 5 23
13 6 61
13 7 27
13 8 78
13 9 21
13 10 53
13 11 19
13 12 93
14 0 71
14 1 76
14 2 66
14 3 94
14 4 100
14 5 100
14 6 30
14 7 23
14 8 43
14 9 30
14 10 80
14 11 25
14 12 28
14 13 34
15 0 30
15 1 59
15 2 35
15 3 68
15 4 33
15 5 60
15 6 69
15 7 74
15 8 22
15 9 72
15 10 1
15 11 40
15 12 23
15 13 8
15 14 63
16 0 33
16 1 81
16 2 17
16 3 2
16 4 45
16 5 75
16 6 50
16 7 29
16 8 14
16 9 21
16 10 68
16 11 22
16 12 23
16 13 64
16 14 18
16 15 60
17 0 65
17 1 35
17 2 88
17 3 6
17 4 48
17 5 16
17 6 15
17 7 61
17 8 68
17 9 28
17 10 84
17 11 59
17 12 71
17 13 46
17 14 70
17 15 78
17 16 97
18 0 10
18 1 99
18 2 71
18 3 57
18 4 70
18 5 31
18 6 72
18 7 3
18 8 96
18 9 88
18 10 100
18 11 77
18 12 46
18 13 86
18 14 84
18 15 67
18 16 55
18 17 37
19 0 81
19 1 91
19 2 3
19 3 37
19 4 44
19 5 86
19 6 70
19 7 57
19 8 94
19 9 90
19 10 89
19 11 90
19 12 68
19 13 24
19 14 49
19 15 31
19 16 62
19 17 27
19 18 12
20 0 1
20 1 4
20 2 92
20 3 46
20 4 27
20 5 4
20 6 6
20 7 96
20 8 40
20 9 70
20 10 100
20 11 29
20 12 65
20 13 10
20 14 57
20 15 33
20 16 9
20 17 25
20 18 32
20 19 62
21 0 61
21 1 87
21 2 78
21 3 51
21 4 78
21 5 48
21 6 99
21 7 37
21 8 8
21 9 21
21 10 56
21 11 73
21 12 78
21 13 44
21 14 8
21 15 11
21 16 49
21 17 99
21 18 54
21 19 97
21 20 8
22 0 57
22 1 16
22 2 100
22 3 74
22 4 65
22 5 83
22 6 66
22 7 100
22 8 12
22 9 94
22 10 78
22 11 23
22 12 22
22 13 35
22 14 55
22 15 99
22 16 61
22 17 79
22 18 27
22 19 3
22 20 73
22 21 3
23 0 54
23 1 1
23 2 65
23 3 40
23 4 100
23 5 9
23 6 14
23 7 63
23 8 66
23 9 8
23 10 69
23 11 20
23 12 34
23 13 72
23 14 55
23 15 41
23 16 96
23 17 34
23 18 23
23 19 4
23 20 63
23 21 94
23 22 97
24 0 36
24 1 64
24 2 36
24 3 93
24 4 62
24 5 98
24 6 25
24 7 40
24 8 48
24 9 98
24 10 92
24 11 12
24 12 7
24 13 3
24 14 21
24 15 49
24 16 39
24 17 65
24 18 4
24 19 33
24 20 40
24 21 30
24 22 37
24 23 42
25 0 8
25 1 70
25 2 50
25 3 10
25 4 10
25 5 55
25 6 12
25 7 43
25 8 7
25 9 93
25 10 55
25 11 87
25 12 46
25 13 76
25 14 89
25 15 53
25 16 56
25 17 7
25 18 24
25 19 20
25 20 23
25 21 8
25 22 15
25 23 93
25 24 13
26 0 19
26 1 81
26 2 89
26 3 90
26 4 42
26 5 85
26 6 57
26 7 32
26 8 98
26 9 70
26 10 67
26 11 33
26 12 98
26 13 71
26 14 38
26 15 80
26 16 31
26 17 74
26 18 64
26 19 1
26 20 45
26 21 80
26 22 71
26 23 48
26 24 57
26 25 87
27 0 24
27 1 62
27 2 17
27 3 11
27 4 42
27 5 13
27 6 31
27 7 4
27 8 14
27 9 36
27 10 89
27 11 38
27 12 14
27 13 95
27 14 76
27 15 67
27 16 52
27 17 43
27 18 55
27 19 81
27 20 24
27 21 67
27 22 51
27 23 23
27 24 31
27 25 31
27 26 65
28 0 19
28 1 94
28 2 61
28 3 13
28 4 51
28 5 80
28 6 28
28 7 61
28 8 82
28 9 12
28 10 26
28 11 98
28 12 88
28 13 28
28 14 62
28 15 76
28 16 84
28 17 27
28 18 82
28 19 93
28 20 26
28 21 98
28 22 16
28 23 29
28 24 42
28 25 20
28 26 22
28 27 26
29 0 16
29 1 3
29 2 42
29 3 87
29 4 29
29 5 79
29 6 16
29 7 46
29 8 35
29 9 80
29 10 12
29 11 16
29 12 15
29 13 55
29 14 64
29 15 27
29 16 61
29 17 18
29 18 36
29 19 4
29 20 45
29 21 28
29 22 42
29 23 56
29 24 15
29 25 31
29 26 3
29 27 75
29 28 1
30 0 41
30 1 6
30 2 50
30 3 13
30 4 16
30 5 4
30 6 69
30 7 100
30 8 58
30 9 84
30 10 49
30 11 69
30 12 62
30 13 67
30 14 19
30 15 86
30 16 77
30 17 29
30 18 48
30 19 29
30 20 49
30 21 73
30 22 90
30 23 46
30 24 75
30 25 59
30 26 98
30 27 46
30 28 85
30 29 97
31 0 13
31 1 23
31 2 11
31 3 55
31 4 46
31 5 83
31 6 42
31 7 21
31 8 89
31 9 55
31 10 49
31 11 52
31 12 51
31 13 64
31 14 34
31 15 66
31 16 83
31 17 17
31 18 50
31 19 81
31 20 33
31 21 45
31 22 79
31 23 5
31 24 80
31 25 76
31 26 78
31 27 13
31 28 96
31 29 43
31 30 16
32 0 96
32 1 53
32 2 54
32 3 80
32 4 44
32 5 87
32 6 78
32 7 7
32 8 94
32 9 67
32 10 16
32 11 78
32 12 85
32 13 34
32 14 74
32 15 82
32 16 73
32 17 11
32 18 45
32 19 29
32 20 2
32 21 11
32 22 72
32 23 79
32 24 43
32 25 69
32 26 54
32 27 5
32 28 48
32 29 90
32 30 6
32 31 23
33 0 71
33 1 98
33 2 91
33 3 39
33 4 52
33 5 10
33 6 89
33 7 5
33 8 85
33 9 73
33 10 68
33 11 89
33 12 97
33 13 45
33 14 62
33 15 92
33 16 7
33 17 17
33 18 88
33 19 70
33 20 61
33 21 81
33 22 48
33 23 44
33 24 46
33 25 8
33 26 98
33 27 5
33 28 38
33 29 92
33 30 78
33 31 56
33 32 27
34 0 73
34 1 40
34 2 35
34 3 29
34 4 33
34 5 19
34 6 11
34 7 89
34 8 47
34 9 27
34 10 61
34 11 14
34 12 18
34 13 68
34 14 61
34 15 6
34 16 35
34 17 11
34 18 43
34 19 80
34 20 31
34 21 56
34 22 11
34 23 82
34 24 29
34 25 89
34 26 18
34 27 51
34 28 10
34 29 12
34 30 37
34 31 77
34 32 27
34 33 90
35 0 88
35 1 63
35 2 67
35 3 44
35 4 2
35 5 92
35 6 14
35 7 3
35 8 27
35 9 37
35 10 86
35 11 73
35 12 15
35 13 93
35 14 38
35 15 90
35 16 47
35 17 1
35 18 51
35 19 83
35 20 76
35 21 99
35 22 55
35 23 33
35 24 96
35 25 16
35 26 55
35 27 33
35 28 75
35 29 99
35 30 61
35 31 70
35 32 8
35 33 42
35 34 35
36 0 81
36 1 71
36 2 41
36 3 100
36 4 68
36 5 84
36 6 13
36 7 95
36 8 63
36 9 22
36 10 44
36 11 56
36 12 79
36 13 28
36 14 51
36 15 51
36 16 90
36 17 5
36 18 84
36 19 17
36 20 33
36 21 13
36 22 86
36 23 62
36 24 7
36 25 79
36 26 6
36 27 36
36 28 24
36 29 6
36 30 21
36 31 86
36 32 53
36 33 39
36 34 9
36 35 46
37 0 21
37 1 13
37 2 97
37 3 22
37 4 98
37 5 13
37 6 52
37 7 84
37 8 73
37 9 93
37 10 7
37 11 74
37 12 80
37 13 55
37 14 36
37 15 71
37 16 51
37 17 85
37 18 10
37 19 5
37 20 2
37 21 77
37 22 12
37 23 89
37 24 69
37 25 13
37 26 89
37 27 13
37 28 53
37 29 74
37 30 60
37 31 25
37 32 52
37 33 94
37 34 17
37 35 90
37 36 76
38 0 91
38 1 91
38 2 8
38 3 79
38 4 26
38 5 60
38 6 13
38 7 55
38 8 85
38 9 26
38 10 11
38 11 72
38 12 84
38 13 89
38 14 10
38 15 62
38 16 30
38 17 95
38 18 53
38 19 65
38 20 96
38 21 35
38 22 64
38 23 15
38 24 7
38 25 15
38 26 57
38 27 10
38 28 20
38 29 44
38 30 85
38 31 98
38 32 52
38 33 87
38 34 10
38 35 77
38 36 4
38 37 86
39 0 28
39 1 91
39 2 75
39 3 67
39 4 87
39 5 75
39 6 54
39 7 52
39 8 76
39 9 62
39 10 44
39 11 66
39 12 70
39 13 77
39 14 71
39 15 9
39 16 62
39 17 71
39 18 46
39 19 18
39 20 26
39 21 68
39 22 14
39 23 53
39 24 69
39 25 33
39 26 97
39 27 75
39 28 93
39 29 84
39 30 14
39 31 5
39 32 59
39 33 98
39 34 40
39 35 75
39 36 20
39 37 92
39 38 24
40 0 12
40 1 83
40 2 83
40 3 95
40 4 30
40 5 3
40 6 45
40 7 22
40 8 94
40 9 20
40 10 24
40 11 92
40 12 100
40 13 92
40 14 85
40 15 42
40 16 90
40 17 98
40 18 88
40 19 49
40 20 74
40 21 91
40 22 28
40 23 64
40 24 52
40 25 44
40 26 88
40 27 45
40 28 37
40 29 16
40 30 79
40 31 28
40 32 41
40 33 14
40 34 72
40 35 35
40 36 58
40 37 60
40 38 46
40 39 13
41 0 68
41 1 53
41 2 13
41 3 54
41 4 47
41 5 13
41 6 79
41 7 33
41 8 38
41 9 35
41 10 67
41 11 71
41 12 46
41 13 84
41 14 3
41 15 3
41 16 38
41 17 32
41 18 39
41 19 24
41 20 80
41 21 83
41 22 79
41 23 18
41 24 25
41 25 69
41 26 8
41 27 12
41 28 45
41 29 1
41 30 62
41 31 6
41 32 69
41 33 99
41 34 72
41 35 67
41 36 64
41 37 52
41 38 86
41 39 92
41 40 85
42 0 68
42 1 43
42 2 76
42 3 63
42 4 19
42 5 43
42 6 36
42 7 21
42 8 1
42 9 62
42 10 91
42 11 28
42 12 49
42 13 88
42 14 81
42 15 41
42 16 78
42 17 73
42 18 86
42 19 83
42 20 60
42 21 43
42 22 77
42 23 63
42 24 31
42 25 5
42 26 5
42 27 40
42 28 2
42 29 29
42 30 17
42 31 84
42 32 26
42 33 19
42 34 48
42 35 75
42 36 20
42 37 83
42 38 38
42 39 65
42 40 73
42 41 67
43 0 58
43 1 77
43 2 72
43 3 21
43 4 53
43 5 14
43 6 21
43 7 9
43 8 43
43 9 22
43 10 57
43 11 77
43 12 31
43 13 7
43 14 72
43 15 43
43 16 97
43 17 17
43 18 94
43 19 80
43 20 9
43 21 23
43 22 91
43 23 95
43 24 55
43 25 75
43 26 6
43 27 27
43 28 71
43 29 14
43 30 29
43 31 26
43 32 52
43 33 56
43 34 60
43 35 79
43 36 35
43 37 86
43 38 38
43 39 91
43 40 13
43 41 36
43 42 15
44 0 49
44 1 14
44 2 19
44 3 15
44 4 16
44 5 45
44 6 51
44 7 16
44 8 33
44 9 99
44 10 90
44 11 19
44 12 36
44 13 66
44 14 61
44 15 8
44 16 12
44 17 99
44 18 49
44 19 23
44 20 42
44 21 27
44 22 90
44 23 87
44 24 9
44 25 9
44 26 82
44 27 51
44 28 88
44 29 80
44 30 91
44 31 74
44 32 14
44 33 36
44 34 37
44 35 33
44 36 16
44 37 36
44 38 81
44 39 29
44 40 60
44 41 51
44 42 39
44 43 50
